%%% static parameters %%%
timespan = 1;
Fact = [4];
Distr1 = [15];
Distr2 = [20];
Clients_N = [300];
Demand_W = [15];
Lt0 = [4];
Lt1 = [4];
SS_ = [0.85];
DS_D = [8];
K = [200];
MA = [500];
%%% dynamic parameters %%%
lost_ratio_sales_ret_th = 0.0952925702057699;
lost_ratio_sales_ret_w = 51;
lost_ratio_sales_dis_th = 0.08557569169833389;
lost_ratio_sales_dis_w = 87;
lost_ratio_sales_fac_th = 0.10337757014573978;
lost_ratio_sales_fac_w = 39;
stock_customer_MA_mean_relative_th = 0.4056396685282113;
stock_customer_MA_mean_relative_w = 59;
stock_distributor_MA_mean_relative_th = 0.16575764670882476;
stock_distributor_MA_mean_relative_w = 15;
stock_retailer_MA_mean_relative_th = 0.23967448529088642;
stock_retailer_MA_mean_relative_w = 54;
stock_factory_MA_mean_relative_th = 0.6384841540069923;
stock_factory_MA_mean_relative_w = 68;
